\ENCODING=ISO-8859-1
\Problem name: IloCplex

Minimize
 obj: 66 y(0) + 68 y(1) + 92 y(2) + 27 y(3) + 42 y(4) + 65 y(5) + 34 y(6)
      + 28 y(7) + 22 y(8) + 52 y(9) + 44 y(10) + 46 y(11) + 56 y(12) + 24 y(13)
      + 16 y(14) + 58 y(15) + 36 y(16) + 49 y(17) + 44 y(18) + 34 y(19)
      + 29 y(20) + 63 y(21) + 64 y(22) + 64 y(23) + 41 y(24) + 44 y(25)
      + 50 y(26) + 46 y(27) + 56 y(28) + 16 y(29) + 59 y(30) + 58 y(31)
      + 61 y(32) + 59 y(33) + 20 y(34) + 68 y(35) + 63 y(36) + 78 y(37)
      + 87 y(38) + 36 y(39) + 31 y(40) + 76 y(41) + 84 y(42) + 60 y(43)
      + 62 y(44) + 69 y(45) + 50 y(46) + 62 y(47) + 4 y(48) + 18 y(49)
      + 31 y(50) + 43 y(51) + 52 y(52)
Subject To
 c1:   y(3)  = 1
 c2:   y(3)  = 1
 c3:   y(3)  = 1
 c4:   y(4)  = 1
 c5:   y(4)  = 1
 c6:   y(4)  = 1
 c7:   y(5)  = 1
 c8:   y(5)  = 1
 c9:   y(5)  = 1
 c10:  y(6)  = 1
 c11:  y(6)  = 1
 c12:  y(6)  = 1
 c13:  y(7)  = 1
 c14:  y(7)  = 1
 c15:  y(7)  = 1
 c16:  y(8)  = 1
 c17:  y(8)  = 1
 c18:  y(8)  = 1
 c19:  y(9)  = 1
 c20:  y(9)  = 1
 c21:  y(9)  = 1
 c22:  y(10)  = 1
 c23:  y(10)  = 1
 c24:  y(10)  = 1
 c25:  y(11)  = 1
 c26:  y(11)  = 1
 c27:  y(11)  = 1
 c28:  y(12)  = 1
 c29:  y(12)  = 1
 c30:  y(12)  = 1
 c31:  y(13)  = 1
 c32:  y(13)  = 1
 c33:  y(13)  = 1
 c34:  y(14)  = 1
 c35:  y(14)  = 1
 c36:  y(14)  = 1
 c37:  y(15)  = 1
 c38:  y(15)  = 1
 c39:  y(15)  = 1
 c40:  y(16)  = 1
 c41:  y(16)  = 1
 c42:  y(16)  = 1
 c43:  y(17)  = 1
 c44:  y(17)  = 1
 c45:  y(17)  = 1
 c46:  y(1) + y(18)  = 1
 c47:  y(1) + y(18)  = 1
 c48:  y(1) + y(18)  = 1
 c49:  y(19)  = 1
 c50:  y(19)  = 1
 c51:  y(19)  = 1
 c52:  y(20)  = 1
 c53:  y(20)  = 1
 c54:  y(20)  = 1
 c55:  y(2) + y(21)  = 1
 c56:  y(2) + y(21)  = 1
 c57:  y(2) + y(21)  = 1
 c58:  y(22)  = 1
 c59:  y(22)  = 1
 c60:  y(22)  = 1
 c61:  y(1) + y(23)  = 1
 c62:  y(1) + y(23)  = 1
 c63:  y(1) + y(23)  = 1
 c64:  y(24)  = 1
 c65:  y(24)  = 1
 c66:  y(24)  = 1
 c67:  y(25)  = 1
 c68:  y(25)  = 1
 c69:  y(25)  = 1
 c70:  y(26)  = 1
 c71:  y(26)  = 1
 c72:  y(26)  = 1
 c73:  y(27)  = 1
 c74:  y(27)  = 1
 c75:  y(27)  = 1
 c76:  y(28)  = 1
 c77:  y(28)  = 1
 c78:  y(28)  = 1
 c79:  y(29)  = 1
 c80:  y(29)  = 1
 c81:  y(29)  = 1
 c82:  y(0) + y(30)  = 1
 c83:  y(0) + y(30)  = 1
 c84:  y(0) + y(30)  = 1
 c85:  y(1) + y(31)  = 1
 c86:  y(1) + y(31)  = 1
 c87:  y(1) + y(31)  = 1
 c88:  y(32)  = 1
 c89:  y(32)  = 1
 c90:  y(32)  = 1
 c91:  y(0) + y(33)  = 1
 c92:  y(0) + y(33)  = 1
 c93:  y(0) + y(33)  = 1
 c94:  y(34)  = 1
 c95:  y(34)  = 1
 c96:  y(34)  = 1
 c97:  y(35)  = 1
 c98:  y(35)  = 1
 c99:  y(35)  = 1
 c100: y(36)  = 1
 c101: y(36)  = 1
 c102: y(36)  = 1
 c103: y(37)  = 1
 c104: y(37)  = 1
 c105: y(37)  = 1
 c106: y(38)  = 1
 c107: y(38)  = 1
 c108: y(38)  = 1
 c109: y(39)  = 1
 c110: y(39)  = 1
 c111: y(39)  = 1
 c112: y(40)  = 1
 c113: y(40)  = 1
 c114: y(40)  = 1
 c115: y(41)  = 1
 c116: y(41)  = 1
 c117: y(41)  = 1
 c118: y(2) + y(42)  = 1
 c119: y(2) + y(42)  = 1
 c120: y(2) + y(42)  = 1
 c121: y(43)  = 1
 c122: y(43)  = 1
 c123: y(43)  = 1
 c124: y(2) + y(44)  = 1
 c125: y(2) + y(44)  = 1
 c126: y(2) + y(44)  = 1
 c127: y(45)  = 1
 c128: y(45)  = 1
 c129: y(45)  = 1
 c130: y(46)  = 1
 c131: y(46)  = 1
 c132: y(46)  = 1
 c133: y(47)  = 1
 c134: y(47)  = 1
 c135: y(47)  = 1
 c136: y(48)  = 1
 c137: y(48)  = 1
 c138: y(48)  = 1
 c139: y(49)  = 1
 c140: y(49)  = 1
 c141: y(49)  = 1
 c142: y(50)  = 1
 c143: y(50)  = 1
 c144: y(50)  = 1
 c145: y(51)  = 1
 c146: y(51)  = 1
 c147: y(51)  = 1
 c148: y(52)  = 1
 c149: y(52)  = 1
 c150: y(52)  = 1
 c151: y(0) + y(1) + y(2) + y(3) + y(4) + y(5) + y(6) + y(7) + y(8) + y(9)
       + y(10) + y(11) + y(12) + y(13) + y(14) + y(15) + y(16) + y(17) + y(18)
       + y(19) + y(20) + y(21) + y(22) + y(23) + y(24) + y(25) + y(26) + y(27)
       + y(28) + y(29) + y(30) + y(31) + y(32) + y(33) + y(34) + y(35) + y(36)
       + y(37) + y(38) + y(39) + y(40) + y(41) + y(42) + y(43) + y(44) + y(45)
       + y(46) + y(47) + y(48) + y(49) + y(50) + y(51) + y(52) >= 6
 c152: y(0) + y(1) + y(2) + y(3) + y(4) + y(5) + y(6) + y(7) + y(8) + y(9)
       + y(10) + y(11) + y(12) + y(13) + y(14) + y(15) + y(16) + y(17) + y(18)
       + y(19) + y(20) + y(21) + y(22) + y(23) + y(24) + y(25) + y(26) + y(27)
       + y(28) + y(29) + y(30) + y(31) + y(32) + y(33) + y(34) + y(35) + y(36)
       + y(37) + y(38) + y(39) + y(40) + y(41) + y(42) + y(43) + y(44) + y(45)
       + y(46) + y(47) + y(48) + y(49) + y(50) + y(51) + y(52) <= 50
Bounds
 0 <= y(0) <= 1
 0 <= y(1) <= 1
 0 <= y(2) <= 1
 0 <= y(3) <= 1
 0 <= y(4) <= 1
 0 <= y(5) <= 1
 0 <= y(6) <= 1
 0 <= y(7) <= 1
 0 <= y(8) <= 1
 0 <= y(9) <= 1
 0 <= y(10) <= 1
 0 <= y(11) <= 1
 0 <= y(12) <= 1
 0 <= y(13) <= 1
 0 <= y(14) <= 1
 0 <= y(15) <= 1
 0 <= y(16) <= 1
 0 <= y(17) <= 1
 0 <= y(18) <= 1
 0 <= y(19) <= 1
 0 <= y(20) <= 1
 0 <= y(21) <= 1
 0 <= y(22) <= 1
 0 <= y(23) <= 1
 0 <= y(24) <= 1
 0 <= y(25) <= 1
 0 <= y(26) <= 1
 0 <= y(27) <= 1
 0 <= y(28) <= 1
 0 <= y(29) <= 1
 0 <= y(30) <= 1
 0 <= y(31) <= 1
 0 <= y(32) <= 1
 0 <= y(33) <= 1
 0 <= y(34) <= 1
 0 <= y(35) <= 1
 0 <= y(36) <= 1
 0 <= y(37) <= 1
 0 <= y(38) <= 1
 0 <= y(39) <= 1
 0 <= y(40) <= 1
 0 <= y(41) <= 1
 0 <= y(42) <= 1
 0 <= y(43) <= 1
 0 <= y(44) <= 1
 0 <= y(45) <= 1
 0 <= y(46) <= 1
 0 <= y(47) <= 1
 0 <= y(48) <= 1
 0 <= y(49) <= 1
 0 <= y(50) <= 1
 0 <= y(51) <= 1
 0 <= y(52) <= 1
Binaries
 y(0)  y(1)  y(2)  y(3)  y(4)  y(5)  y(6)  y(7)  y(8)  y(9)  y(10)  y(11) 
 y(12)  y(13)  y(14)  y(15)  y(16)  y(17)  y(18)  y(19)  y(20)  y(21)  y(22) 
 y(23)  y(24)  y(25)  y(26)  y(27)  y(28)  y(29)  y(30)  y(31)  y(32)  y(33) 
 y(34)  y(35)  y(36)  y(37)  y(38)  y(39)  y(40)  y(41)  y(42)  y(43)  y(44) 
 y(45)  y(46)  y(47)  y(48)  y(49)  y(50)  y(51)  y(52) 
End
